dates = {'2021-12-24','2021-12-25','2021-12-26','2021-12-27','2021-12-28','2021-12-29','2021-12-30','2021-12-31','2022-01-01','2022-01-02','2022-01-03','2022-01-04','2022-01-05','2022-01-06','2022-01-07','2022-01-08','2022-01-09','2022-01-10','2022-01-11','2022-01-12'};

4daysOfWeek = [Friday,Saturday,Sunday,Monday,Tuesday,Wednesday,Thursday,Friday,Saturday,Sunday,Monday,Tuesday,Wednesday,Thursday,Friday,Saturday,Sunday,Monday,Tuesday,Wednesday];

% For this week, how many people will be here.
numPeople = [152,152,152,152,161,161,164,164,164,164,164,164,164,164,164,165,165,154
,154,162];

% Physical workers need 50 to 100 % more nutrients per day.
numPhysicalWorkers = [56.0,55.0,55.0,55.0,58.5,58.5,58.5,58.5,58.5,58.5,58.5,58.5,58.5,58.5
,58.5,58.5,58.5,58.5,54.0,56.5];

% Males need +25% more nutrients per day.
numMen = [128,127,127,127,136,135,137,137,137,137,137,137,137,137,137,138,138,138
,131,136];

% Num people who do not eat categories. contains = {none, meat, milk, gluten, egg, nut, seed, sugars}
numRefusals = [| 0,2,0,0,0,0,1,0 | 0,2,0,0,0,0,1,0 | 0,2,0,0,0,0,1,0 | 0,2,0,0,0,0,1,0 | 0,4,14,1,0,0,7,0 | 0,4,14,1,0,0,7,0 | 0,1,0,0,14,0,0,0 | 0,1,0,0,14,0,0,0 | 0,1,0,0,14,0,0,0 | 0,1,0,0,14,0,0,0 | 0,1,0,0,14,0,0,0 | 0,1,0,0,14,0,0,0 | 0,1,0,0,14,0,0,0 | 0,1,0,0,14,0,0,0 | 0,1,0,0,14,0,0,0 | 0,0,4,0,4,5,0,6 | 0,0,4,0,4,5,0,6 | 0,0,0,2,4,11,0,0 | 0,0,0,2,4,11,0,0 | 0,2,7,0,2,0,8,0 |];

